p cnf 218 25
202 186 -67 0
-180 -65 135 0
105 -210 173 0
-126 -218 -192 0
162 87 60 0
102 -195 37 0
-22 -170 -104 0
-116 66 54 0
-213 -13 51 0
-116 -27 110 0
129 24 -15 0
-6 52 202 0
56 -176 -144 0
129 12 -160 0
-31 79 96 0
-84 -60 -57 0
-102 96 -12 0
98 195 151 0
-181 -140 18 0
-31 -41 214 0
-194 -122 -60 0
54 110 217 0
144 -184 93 0
-146 2 -17 0
100 -4 -188 0
